username,password,datasetId,description
custodian1,1234,3414,teststress11
custodian2,1234,3406,teststress22
custodian3,1234,3397,teststress33
custodian4,1234,3440,teststress44
custodian5,1234,3428,teststress55